&control
prefix = 'example',
pseudo_dir = './',
outdir = './',
wf_collect = .true.
verbosity = 'high'
/
&system
ibrav = 0 
A = 6.38639
nat = 8
ntyp = 2
ecutwfc = XXECUTWFCXX
nbnd = XXNBNDXX
nspin = 1
nosym = .TRUE.
occupations = 'smearing' 
smearing = 'gauss' 
/
&electrons
conv_thr =  1.0d-9
/
CELL_PARAMETERS {alat}
 0.00000000  0.00000000 -0.82008633
 0.00000000 -0.91089846  0.00000000
-1.00000000  0.00000000  0.00000000
ATOMIC_SPECIES
F 18.998  
Tl 204.383  
ATOMIC_POSITIONS {crystal}
 F 0.75000000 0.42359117 0.14262253
 F 0.25000000 0.57640883 0.85737747
 F 0.75000000 0.92359117 0.85737747
 F 0.25000000 0.07640883 0.14262253
 Tl 0.75000000 0.49782743 0.75776678
 Tl 0.25000000 0.50217257 0.24223322
 Tl 0.75000000 0.99782743 0.24223322
 Tl 0.25000000 0.00217257 0.75776678
K_POINTS {automatic}
11 10  9 0 0 0
